n_res = 4;
rc = [ 16, 9, 10, 21 ];
n_tasks = 30;
d = [ 4, 4, 1, 2, 4, 1, 7, 9, 6, 2, 3, 9, 3, 4, 5, 5, 7, 9, 2, 10, 3, 2, 7, 10, 8, 3, 9, 4, 1, 2 ];
rr = [| 0, 0, 0, 9, 0, 0, 0, 9, 8, 0, 4, 0, 0, 0, 0, 0, 5, 4, 0, 6, 3, 0, 0, 2, 0, 0, 0, 3, 0, 0
      | 0, 0, 0, 0, 0, 0, 0, 0, 0, 7, 0, 0, 1, 0, 6, 0, 0, 0, 0, 0, 0, 8, 0, 0, 9, 0, 0, 0, 0, 0
      | 0, 4, 0, 0, 0, 0, 0, 0, 0, 0, 0, 0, 0, 0, 0, 8, 0, 0, 4, 0, 0, 0, 0, 0, 0, 5, 2, 0, 0, 0
      | 5, 0, 4, 0, 7, 2, 4, 0, 0, 0, 0, 9, 0, 7, 0, 0, 0, 0, 0, 0, 0, 0, 5, 0, 0, 0, 0, 0, 2, 3 |];
suc = [ { 2 }, 
        { 3 }, 
        { 4 }, 
        { 5 }, 
        { 6 }, 
        { 7 }, 
        { 8 }, 
        { 9 }, 
        { 10 }, 
        { 11 }, 
        { 12 }, 
        { 13 }, 
        { 14 }, 
        { 15 }, 
        { 16 }, 
        { 17 }, 
        { 18 }, 
        { 19 }, 
        { 20 }, 
        { 21 }, 
        { 22 }, 
        { 23 }, 
        { 24 }, 
        { 25 }, 
        { 26 }, 
        { 27 }, 
        { 28 }, 
        { 29 }, 
        { 30 }, 
        {  }]; 
